(set-info :source |printed by MathSAT|)
(declare-fun |.x{1}| () Int)
(declare-fun |.x{465}| () Int)
(declare-fun |.x{2}| () (Array Int (Array Int Int)))
(declare-fun |.x{466}| () (Array Int (Array Int Int)))
(declare-fun |.x{3}| () (Array Int (Array Int Int)))
(declare-fun |.x{467}| () (Array Int (Array Int Int)))
(declare-fun |.x{39}| () (Array Int Int))
(declare-fun |.x{468}| () (Array Int Int))
(declare-fun |.x{5}| () (Array Int Int))
(declare-fun |.x{469}| () (Array Int Int))
(declare-fun |.x{6}| () (Array Int (Array Int Int)))
(declare-fun |.x{470}| () (Array Int (Array Int Int)))
(declare-fun |.x{7}| () (Array Int (Array Int Int)))
(declare-fun |.x{471}| () (Array Int (Array Int Int)))
(declare-fun |.x{43}| () Int)
(declare-fun |.x{472}| () Int)
(declare-fun |.x{9}| () Int)
(declare-fun |.x{473}| () Int)
(declare-fun |.x{10}| () (Array Int Int))
(declare-fun |.x{474}| () (Array Int Int))
(declare-fun |.x{11}| () (Array Int Int))
(declare-fun |.x{475}| () (Array Int Int))
(declare-fun |.x{47}| () Int)
(declare-fun |.x{476}| () Int)
(declare-fun |.x{13}| () Int)
(declare-fun |.x{477}| () Int)
(declare-fun |.x{14}| () (Array Int (Array Int Int)))
(declare-fun |.x{478}| () (Array Int (Array Int Int)))
(declare-fun |.x{15}| () (Array Int (Array Int Int)))
(declare-fun |.x{479}| () (Array Int (Array Int Int)))
(declare-fun |.x{16}| () Int)
(declare-fun |.x{480}| () Int)
(declare-fun |.x{17}| () Int)
(declare-fun |.x{481}| () Int)
(declare-fun |.x{18}| () Int)
(declare-fun |.x{482}| () Int)
(declare-fun |.x{19}| () Int)
(declare-fun |.x{483}| () Int)
(declare-fun |.x{20}| () Int)
(declare-fun |.x{484}| () Int)
(declare-fun |.x{21}| () Int)
(declare-fun |.x{485}| () Int)
(declare-fun |.x{22}| () Int)
(declare-fun |.x{486}| () Int)
(declare-fun |.x{23}| () Int)
(declare-fun |.x{487}| () Int)
(declare-fun |.x{24}| () Int)
(declare-fun |.x{488}| () Int)
(declare-fun |.x{25}| () Int)
(declare-fun |.x{489}| () Int)
(declare-fun |.x{26}| () Int)
(declare-fun |.x{490}| () Int)
(declare-fun |.x{27}| () Int)
(declare-fun |.x{491}| () Int)
(declare-fun |.x{28}| () Int)
(declare-fun |.x{492}| () Int)
(declare-fun |.x{29}| () Int)
(declare-fun |.x{493}| () Int)
(declare-fun |.x{30}| () Int)
(declare-fun |.x{494}| () Int)
(declare-fun |.x{31}| () Int)
(declare-fun |.x{495}| () Int)
(declare-fun |.x{32}| () Int)
(declare-fun |.x{496}| () Int)
(declare-fun |.x{33}| () Int)
(declare-fun |.x{497}| () Int)
(declare-fun |.x{34}| () Int)
(declare-fun |.x{498}| () Int)
(declare-fun |.x{35}| () Bool)
(declare-fun |.x{429}| () Bool)
(declare-fun |.loc{3}| () Bool)
(declare-fun |.loc{5}| () Bool)
(declare-fun |.loc{4}| () Bool)
(declare-fun |.loc{6}| () Bool)
(declare-fun |.x{141}| () (Array Int Int))
(define-fun .def_80 () Bool (! |.loc{4}| :next |.loc{6}|))
(define-fun .def_306 () Bool (not .def_80))
(define-fun .def_78 () Bool (! |.loc{3}| :next |.loc{5}|))
(define-fun .def_98 () Bool (not .def_78))
(define-fun .def_324 () Bool (and .def_98 .def_306))
(define-fun .def_24 () Int (! |.x{9}| :next |.x{473}|))
(define-fun .def_22 () Int (! |.x{43}| :next |.x{472}|))
(define-fun .def_316 () Bool (= .def_22 .def_24))
(define-fun .def_36 () (Array Int (Array Int Int)) (! |.x{15}| :next |.x{479}|))
(define-fun .def_34 () (Array Int (Array Int Int)) (! |.x{14}| :next |.x{478}|))
(define-fun .def_315 () Bool (= .def_34 .def_36))
(define-fun .def_317 () Bool (and .def_315 .def_316))
(define-fun .def_76 () Bool (! |.x{35}| :next |.x{429}|))
(define-fun .def_314 () Bool (not .def_76))
(define-fun .def_318 () Bool (and .def_314 .def_317))
(define-fun .def_32 () Int (! |.x{13}| :next |.x{477}|))
(define-fun .def_30 () Int (! |.x{47}| :next |.x{476}|))
(define-fun .def_313 () Bool (= .def_30 .def_32))
(define-fun .def_319 () Bool (and .def_313 .def_318))
(define-fun .def_12 () (Array Int (Array Int Int)) (! |.x{3}| :next |.x{467}|))
(define-fun .def_10 () (Array Int (Array Int Int)) (! |.x{2}| :next |.x{466}|))
(define-fun .def_312 () Bool (= .def_10 .def_12))
(define-fun .def_320 () Bool (and .def_312 .def_319))
(define-fun .def_28 () (Array Int Int) (! |.x{11}| :next |.x{475}|))
(define-fun .def_26 () (Array Int Int) (! |.x{10}| :next |.x{474}|))
(define-fun .def_311 () Bool (= .def_26 .def_28))
(define-fun .def_321 () Bool (and .def_311 .def_320))
(define-fun .def_20 () (Array Int (Array Int Int)) (! |.x{7}| :next |.x{471}|))
(define-fun .def_18 () (Array Int (Array Int Int)) (! |.x{6}| :next |.x{470}|))
(define-fun .def_310 () Bool (= .def_18 .def_20))
(define-fun .def_322 () Bool (and .def_310 .def_321))
(define-fun .def_16 () (Array Int Int) (! |.x{5}| :next |.x{469}|))
(define-fun .def_14 () (Array Int Int) (! |.x{39}| :next |.x{468}|))
(define-fun .def_309 () Bool (= .def_14 .def_16))
(define-fun .def_323 () Bool (and .def_309 .def_322))
(define-fun .def_325 () Bool (! (and .def_323 .def_324) :init true))
(define-fun .def_304 () Bool (= .def_36 |.x{479}|))
(define-fun .def_302 () Bool (= .def_32 |.x{477}|))
(define-fun .def_300 () Bool (= .def_28 |.x{475}|))
(define-fun .def_298 () Bool (= .def_24 |.x{473}|))
(define-fun .def_296 () Bool (= .def_20 |.x{471}|))
(define-fun .def_294 () Bool (= .def_16 |.x{469}|))
(define-fun .def_8 () Int (! |.x{1}| :next |.x{465}|))
(define-fun .def_292 () Bool (= .def_8 |.x{465}|))
(define-fun .def_291 () Bool (= .def_12 |.x{467}|))
(define-fun .def_293 () Bool (and .def_291 .def_292))
(define-fun .def_295 () Bool (and .def_293 .def_294))
(define-fun .def_297 () Bool (and .def_295 .def_296))
(define-fun .def_299 () Bool (and .def_297 .def_298))
(define-fun .def_301 () Bool (and .def_299 .def_300))
(define-fun .def_303 () Bool (and .def_301 .def_302))
(define-fun .def_305 () Bool (and .def_303 .def_304))
(define-fun .def_307 () Bool (and .def_305 .def_306))
(define-fun .def_286 () Bool (not |.loc{5}|))
(define-fun .def_287 () Bool (and |.loc{6}| .def_286))
(define-fun .def_104 () Bool (= |.x{483}| 0))
(define-fun .def_283 () Bool (or .def_76 .def_104))
(define-fun .def_210 () (Array Int Int) (store |.x{141}| |.x{481}| 1))
(define-fun .def_211 () (Array Int Int) (store .def_210 |.x{491}| 1))
(define-fun .def_235 () Int (select .def_211 |.x{485}|))
(define-fun .def_236 () Bool (= .def_235 0))
(define-fun .def_231 () Bool (= |.x{485}| 0))
(define-fun .def_232 () Bool (not .def_231))
(define-fun .def_228 () Int (select .def_210 |.x{491}|))
(define-fun .def_229 () Bool (= .def_228 0))
(define-fun .def_225 () Bool (= |.x{482}| 0))
(define-fun .def_223 () Bool (= |.x{483}| |.x{493}|))
(define-fun .def_114 () Int (+ |.x{489}| 4))
(define-fun .def_219 () (Array Int Int) (select |.x{466}| |.x{485}|))
(define-fun .def_220 () Int (select .def_219 .def_114))
(define-fun .def_221 () Bool (= |.x{497}| .def_220))
(define-fun .def_215 () (Array Int Int) (select |.x{478}| |.x{485}|))
(define-fun .def_216 () Int (select .def_215 .def_114))
(define-fun .def_217 () Bool (= |.x{484}| .def_216))
(define-fun .def_212 () (Array Int Int) (store .def_211 |.x{485}| 1))
(define-fun .def_213 () Bool (= |.x{468}| .def_212))
(define-fun .def_203 () Int (select |.x{141}| |.x{481}|))
(define-fun .def_204 () Bool (= .def_203 0))
(define-fun .def_199 () Bool (= |.x{498}| 4))
(define-fun .def_200 () Int (ite .def_199 1 0))
(define-fun .def_201 () Bool (= |.x{493}| .def_200))
(define-fun .def_196 () Bool (= |.x{491}| 0))
(define-fun .def_197 () Bool (not .def_196))
(define-fun .def_174 () Int (+ |.x{484}| 4))
(define-fun .def_191 () (Array Int Int) (select |.x{478}| |.x{497}|))
(define-fun .def_192 () Int (select .def_191 .def_174))
(define-fun .def_193 () Bool (= |.x{492}| .def_192))
(define-fun .def_189 () Bool (= |.x{489}| 0))
(define-fun .def_185 () (Array Int Int) (select |.x{470}| |.x{494}|))
(define-fun .def_186 () Int (select .def_185 |.x{492}|))
(define-fun .def_187 () Bool (= |.x{498}| .def_186))
(define-fun .def_180 () Bool (= |.x{481}| 0))
(define-fun .def_181 () Bool (not .def_180))
(define-fun .def_175 () (Array Int Int) (select |.x{466}| |.x{497}|))
(define-fun .def_176 () Int (select .def_175 .def_174))
(define-fun .def_177 () Bool (= |.x{494}| .def_176))
(define-fun .def_170 () Bool (= |.x{480}| 0))
(define-fun .def_167 () Bool (<= |.x{465}| |.x{491}|))
(define-fun .def_168 () Bool (not .def_167))
(define-fun .def_165 () Bool (<= |.x{465}| |.x{485}|))
(define-fun .def_166 () Bool (not .def_165))
(define-fun .def_169 () Bool (and .def_166 .def_168))
(define-fun .def_171 () Bool (and .def_169 .def_170))
(define-fun .def_124 () (Array Int Int) (select .def_10 |.x{485}|))
(define-fun .def_125 () Int (select .def_124 .def_114))
(define-fun .def_164 () Bool (= |.x{491}| .def_125))
(define-fun .def_172 () Bool (and .def_164 .def_171))
(define-fun .def_115 () (Array Int Int) (select .def_34 |.x{485}|))
(define-fun .def_116 () Int (select .def_115 .def_114))
(define-fun .def_127 () Int (+ .def_116 4))
(define-fun .def_126 () (Array Int Int) (select .def_34 .def_125))
(define-fun .def_128 () Int (select .def_126 .def_127))
(define-fun .def_129 () (Array Int Int) (select .def_10 .def_125))
(define-fun .def_130 () Int (select .def_129 .def_127))
(define-fun .def_158 () (Array Int Int) (select |.x{466}| .def_130))
(define-fun .def_159 () Int (select .def_158 .def_128))
(define-fun .def_160 () (Array Int Int) (select .def_10 .def_130))
(define-fun .def_161 () (Array Int Int) (store .def_160 .def_128 .def_159))
(define-fun .def_162 () (Array Int (Array Int Int)) (store .def_10 .def_130 .def_161))
(define-fun .def_163 () Bool (= |.x{466}| .def_162))
(define-fun .def_173 () Bool (and .def_163 .def_172))
(define-fun .def_178 () Bool (and .def_173 .def_177))
(define-fun .def_156 () Bool (<= |.x{465}| |.x{481}|))
(define-fun .def_157 () Bool (not .def_156))
(define-fun .def_179 () Bool (and .def_157 .def_178))
(define-fun .def_182 () Bool (and .def_179 .def_181))
(define-fun .def_150 () (Array Int Int) (select |.x{478}| .def_130))
(define-fun .def_151 () Int (select .def_150 .def_128))
(define-fun .def_152 () (Array Int Int) (select .def_34 .def_130))
(define-fun .def_153 () (Array Int Int) (store .def_152 .def_128 .def_151))
(define-fun .def_154 () (Array Int (Array Int Int)) (store .def_34 .def_130 .def_153))
(define-fun .def_155 () Bool (= |.x{478}| .def_154))
(define-fun .def_183 () Bool (and .def_155 .def_182))
(define-fun .def_147 () (Array Int Int) (select .def_18 |.x{485}|))
(define-fun .def_148 () Int (select .def_147 |.x{489}|))
(define-fun .def_149 () Bool (= .def_148 1))
(define-fun .def_184 () Bool (and .def_149 .def_183))
(define-fun .def_188 () Bool (and .def_184 .def_187))
(define-fun .def_190 () Bool (and .def_188 .def_189))
(define-fun .def_194 () Bool (and .def_190 .def_193))
(define-fun .def_135 () Int (+ |.x{482}| 4))
(define-fun .def_143 () (Array Int Int) (select .def_34 |.x{491}|))
(define-fun .def_144 () Int (select .def_143 .def_135))
(define-fun .def_145 () Bool (= |.x{480}| .def_144))
(define-fun .def_195 () Bool (and .def_145 .def_194))
(define-fun .def_198 () Bool (and .def_195 .def_197))
(define-fun .def_202 () Bool (and .def_198 .def_201))
(define-fun .def_205 () Bool (and .def_202 .def_204))
(define-fun .def_140 () (Array Int Int) (select .def_18 |.x{481}|))
(define-fun .def_141 () Int (select .def_140 |.x{480}|))
(define-fun .def_142 () Bool (= .def_141 3))
(define-fun .def_206 () Bool (and .def_142 .def_205))
(define-fun .def_136 () (Array Int Int) (select .def_10 |.x{491}|))
(define-fun .def_137 () Int (select .def_136 .def_135))
(define-fun .def_138 () Bool (= |.x{481}| .def_137))
(define-fun .def_207 () Bool (and .def_138 .def_206))
(define-fun .def_131 () (Array Int Int) (select .def_18 .def_130))
(define-fun .def_132 () (Array Int Int) (store .def_131 .def_128 4))
(define-fun .def_133 () (Array Int (Array Int Int)) (store .def_18 .def_130 .def_132))
(define-fun .def_134 () Bool (= |.x{470}| .def_133))
(define-fun .def_208 () Bool (and .def_134 .def_207))
(define-fun .def_119 () (Array Int Int) (store .def_26 |.x{481}| 4))
(define-fun .def_120 () (Array Int Int) (store .def_119 |.x{491}| 8))
(define-fun .def_121 () (Array Int Int) (store .def_120 |.x{485}| 8))
(define-fun .def_122 () Bool (= |.x{474}| .def_121))
(define-fun .def_209 () Bool (and .def_122 .def_208))
(define-fun .def_214 () Bool (and .def_209 .def_213))
(define-fun .def_218 () Bool (and .def_214 .def_217))
(define-fun .def_222 () Bool (and .def_218 .def_221))
(define-fun .def_224 () Bool (and .def_222 .def_223))
(define-fun .def_226 () Bool (and .def_224 .def_225))
(define-fun .def_117 () Bool (= |.x{482}| .def_116))
(define-fun .def_227 () Bool (and .def_117 .def_226))
(define-fun .def_230 () Bool (and .def_227 .def_229))
(define-fun .def_233 () Bool (and .def_230 .def_232))
(define-fun .def_110 () (Array Int Int) (select .def_18 |.x{491}|))
(define-fun .def_111 () Int (select .def_110 |.x{482}|))
(define-fun .def_112 () Bool (= .def_111 2))
(define-fun .def_234 () Bool (and .def_112 .def_233))
(define-fun .def_237 () Bool (and .def_234 .def_236))
(define-fun .def_280 () Bool (or .def_76 .def_237))
(define-fun .def_93 () (Array Int Int) (store .def_14 0 0))
(define-fun .def_94 () Bool (= |.x{141}| .def_93))
(define-fun .def_90 () Bool (= |.x{472}| 0))
(define-fun .def_89 () Bool (= |.x{476}| 0))
(define-fun .def_91 () Bool (and .def_89 .def_90))
(define-fun .def_95 () Bool (and .def_91 .def_94))
(define-fun .def_96 () Bool (or .def_76 .def_95))
(define-fun .def_277 () Bool (and |.x{429}| .def_96))
(define-fun .def_278 () Bool (and .def_98 .def_277))
(define-fun .def_50 () Int (! |.x{22}| :next |.x{486}|))
(define-fun .def_83 () Bool (= .def_50 |.x{486}|))
(define-fun .def_279 () Bool (and .def_83 .def_278))
(define-fun .def_281 () Bool (and .def_279 .def_280))
(define-fun .def_282 () Bool (and .def_280 .def_281))
(define-fun .def_284 () Bool (and .def_282 .def_283))
(define-fun .def_275 () Bool (= .def_10 |.x{466}|))
(define-fun .def_272 () Bool (= .def_18 |.x{470}|))
(define-fun .def_270 () Bool (= .def_22 |.x{472}|))
(define-fun .def_268 () Bool (= .def_26 |.x{474}|))
(define-fun .def_266 () Bool (= .def_30 |.x{476}|))
(define-fun .def_264 () Bool (= .def_34 |.x{478}|))
(define-fun .def_44 () Int (! |.x{19}| :next |.x{483}|))
(define-fun .def_262 () Bool (= .def_44 |.x{483}|))
(define-fun .def_52 () Int (! |.x{23}| :next |.x{487}|))
(define-fun .def_260 () Bool (= .def_52 |.x{487}|))
(define-fun .def_58 () Int (! |.x{26}| :next |.x{490}|))
(define-fun .def_258 () Bool (= .def_58 |.x{490}|))
(define-fun .def_64 () Int (! |.x{29}| :next |.x{493}|))
(define-fun .def_256 () Bool (= .def_64 |.x{493}|))
(define-fun .def_68 () Int (! |.x{31}| :next |.x{495}|))
(define-fun .def_254 () Bool (= .def_68 |.x{495}|))
(define-fun .def_70 () Int (! |.x{32}| :next |.x{496}|))
(define-fun .def_252 () Bool (= .def_70 |.x{496}|))
(define-fun .def_248 () Bool (= |.x{486}| |.x{488}|))
(define-fun .def_249 () Bool (or |.x{429}| .def_248))
(define-fun .def_48 () Int (! |.x{21}| :next |.x{485}|))
(define-fun .def_60 () Int (! |.x{27}| :next |.x{491}|))
(define-fun .def_40 () Int (! |.x{17}| :next |.x{481}|))
(define-fun .def_242 () (Array Int Int) (store .def_14 .def_40 0))
(define-fun .def_243 () (Array Int Int) (store .def_242 .def_60 0))
(define-fun .def_244 () (Array Int Int) (store .def_243 .def_48 0))
(define-fun .def_245 () Bool (= |.x{468}| .def_244))
(define-fun .def_241 () Bool (= |.x{488}| 0))
(define-fun .def_246 () Bool (and .def_241 .def_245))
(define-fun .def_247 () Bool (or .def_76 .def_246))
(define-fun .def_250 () Bool (and .def_247 .def_249))
(define-fun .def_101 () Bool (= .def_76 |.x{429}|))
(define-fun .def_251 () Bool (and .def_101 .def_250))
(define-fun .def_253 () Bool (and .def_251 .def_252))
(define-fun .def_255 () Bool (and .def_253 .def_254))
(define-fun .def_257 () Bool (and .def_255 .def_256))
(define-fun .def_259 () Bool (and .def_257 .def_258))
(define-fun .def_261 () Bool (and .def_259 .def_260))
(define-fun .def_263 () Bool (and .def_261 .def_262))
(define-fun .def_265 () Bool (and .def_263 .def_264))
(define-fun .def_267 () Bool (and .def_265 .def_266))
(define-fun .def_269 () Bool (and .def_267 .def_268))
(define-fun .def_271 () Bool (and .def_269 .def_270))
(define-fun .def_273 () Bool (and .def_271 .def_272))
(define-fun .def_274 () Bool (and .def_78 .def_273))
(define-fun .def_276 () Bool (and .def_274 .def_275))
(define-fun .def_285 () Bool (or .def_276 .def_284))
(define-fun .def_288 () Bool (and .def_285 .def_287))
(define-fun .def_238 () Bool (or |.x{429}| .def_237))
(define-fun .def_105 () Bool (not .def_104))
(define-fun .def_106 () Bool (or |.x{429}| .def_105))
(define-fun .def_100 () Bool (and |.loc{5}| .def_83))
(define-fun .def_102 () Bool (and .def_100 .def_101))
(define-fun .def_86 () Bool (not |.loc{6}|))
(define-fun .def_103 () Bool (and .def_86 .def_102))
(define-fun .def_107 () Bool (and .def_103 .def_106))
(define-fun .def_108 () Bool (and .def_96 .def_107))
(define-fun .def_239 () Bool (and .def_108 .def_238))
(define-fun .def_240 () Bool (and .def_98 .def_239))
(define-fun .def_289 () Bool (or .def_240 .def_288))
(define-fun .def_82 () Bool (and .def_76 |.loc{5}|))
(define-fun .def_84 () Bool (and .def_82 .def_83))
(define-fun .def_85 () Bool (and |.x{429}| .def_84))
(define-fun .def_87 () Bool (and .def_85 .def_86))
(define-fun .def_97 () Bool (and .def_87 .def_96))
(define-fun .def_99 () Bool (and .def_97 .def_98))
(define-fun .def_290 () Bool (or .def_99 .def_289))
(define-fun .def_308 () Bool (! (and .def_290 .def_307) :trans true))
(define-fun .def_74 () Int (! |.x{34}| :next |.x{498}|))
(define-fun .def_38 () Int (! |.x{16}| :next |.x{480}|))
(define-fun .def_42 () Int (! |.x{18}| :next |.x{482}|))
(define-fun .def_46 () Int (! |.x{20}| :next |.x{484}|))
(define-fun .def_54 () Int (! |.x{24}| :next |.x{488}|))
(define-fun .def_56 () Int (! |.x{25}| :next |.x{489}|))
(define-fun .def_62 () Int (! |.x{28}| :next |.x{492}|))
(define-fun .def_66 () Int (! |.x{30}| :next |.x{494}|))
(define-fun .def_72 () Int (! |.x{33}| :next |.x{497}|))
(define-fun .def_326 () Bool (and .def_80 .def_98))
(define-fun .def_327 () Bool (and .def_76 .def_326))
(define-fun .def_328 () Bool (! (not .def_327) :invar-property 0))
(assert true)
